(set-logic QF_LRA)
(declare-fun fluent_robot_at_r0_p0@0 () Bool)
(declare-fun fluent_robot_at_r0_p1@0 () Bool)
(declare-fun fluent_robot_at_r0_p2@0 () Bool)
(declare-fun act_unload_at_depot@1 () Bool)
(declare-fun fluent_robot_free_r0@0 () Bool)
(declare-fun parameter_unload_at_depot_pos@1 () Real)
(declare-fun fluent_pallet_at_plt0_p0@0 () Bool)
(declare-fun fluent_pallet_at_plt0_p1@0 () Bool)
(declare-fun fluent_pallet_at_plt0_p2@0 () Bool)
(declare-fun fluent_battery_level_r0@0 () Real)
(declare-fun parameter_unload_at_depot_r@1 () Real)
(declare-fun parameter_unload_at_depot_pallet@1 () Real)
(declare-fun fluent_position_free_p0@0 () Bool)
(declare-fun fluent_position_free_p1@0 () Bool)
(declare-fun fluent_position_free_p2@0 () Bool)
(declare-fun dur_make_treatment@1 () Real)
(declare-fun fluent_robot_has_r0_plt0@0 () Bool)
(declare-fun fluent_ready_plt0_p0_t0@0 () Bool)
(declare-fun fluent_ready_plt0_p1_t0@0 () Bool)
(declare-fun fluent_ready_plt0_p2_t0@0 () Bool)
(declare-fun fluent_ready_plt0_p0_t1@0 () Bool)
(declare-fun fluent_ready_plt0_p1_t1@0 () Bool)
(declare-fun fluent_ready_plt0_p2_t1@0 () Bool)
(declare-fun fluent_ready_plt0_p0_t2@0 () Bool)
(declare-fun fluent_ready_plt0_p1_t2@0 () Bool)
(declare-fun fluent_ready_plt0_p2_t2@0 () Bool)
(declare-fun fluent_ready_plt0_p0_t3@0 () Bool)
(declare-fun fluent_ready_plt0_p1_t3@0 () Bool)
(declare-fun fluent_ready_plt0_p2_t3@0 () Bool)
(declare-fun parameter_make_treatment_t@1 () Real)
(declare-fun parameter_make_treatment_pallet@1 () Real)
(declare-fun parameter_make_treatment_r@1 () Real)
(declare-fun fluent_treated_plt0_t0@0 () Bool)
(declare-fun fluent_treated_plt0_t1@0 () Bool)
(declare-fun fluent_treated_plt0_t2@0 () Bool)
(declare-fun fluent_treated_plt0_t3@0 () Bool)
(declare-fun parameter_make_treatment_pos@1 () Real)
(declare-fun act_move@1 () Bool)
(declare-fun parameter_move_topos@1 () Real)
(declare-fun parameter_move_frompos@1 () Real)
(declare-fun parameter_move_r@1 () Real)
(declare-fun fluent_robot_at_r0_p0@1 () Bool)
(declare-fun fluent_robot_at_r0_p1@1 () Bool)
(declare-fun fluent_robot_at_r0_p2@1 () Bool)
(declare-fun fluent_battery_level_r0@1 () Real)
(declare-fun act_load@1 () Bool)
(declare-fun parameter_load_t@1 () Real)
(declare-fun parameter_load_pos@1 () Real)
(declare-fun act_make_treatment@1 () Bool)
(declare-fun parameter_load_pallet@1 () Real)
(declare-fun parameter_load_r@1 () Real)
(declare-fun fluent_robot_free_r0@1 () Bool)
(declare-fun fluent_ready_plt0_p0_t0@1 () Bool)
(declare-fun fluent_ready_plt0_p1_t0@1 () Bool)
(declare-fun fluent_ready_plt0_p2_t0@1 () Bool)
(declare-fun fluent_ready_plt0_p0_t1@1 () Bool)
(declare-fun fluent_ready_plt0_p1_t1@1 () Bool)
(declare-fun fluent_ready_plt0_p2_t1@1 () Bool)
(declare-fun fluent_ready_plt0_p0_t2@1 () Bool)
(declare-fun fluent_ready_plt0_p1_t2@1 () Bool)
(declare-fun fluent_ready_plt0_p2_t2@1 () Bool)
(declare-fun fluent_ready_plt0_p0_t3@1 () Bool)
(declare-fun fluent_ready_plt0_p1_t3@1 () Bool)
(declare-fun fluent_ready_plt0_p2_t3@1 () Bool)
(declare-fun fluent_pallet_at_plt0_p0@1 () Bool)
(declare-fun fluent_pallet_at_plt0_p1@1 () Bool)
(declare-fun fluent_pallet_at_plt0_p2@1 () Bool)
(declare-fun fluent_robot_has_r0_plt0@1 () Bool)
(declare-fun fluent_treated_plt0_t0@1 () Bool)
(declare-fun fluent_treated_plt0_t1@1 () Bool)
(declare-fun t@1 () Real)
(declare-fun fluent_treated_plt0_t2@1 () Bool)
(declare-fun fluent_treated_plt0_t3@1 () Bool)
(declare-fun fluent_position_free_p0@1 () Bool)
(declare-fun fluent_position_free_p1@1 () Bool)
(declare-fun fluent_position_free_p2@1 () Bool)
(declare-fun act_load_at_depot@1 () Bool)
(declare-fun parameter_load_at_depot_pos@1 () Real)
(declare-fun parameter_load_at_depot_r@1 () Real)
(declare-fun parameter_load_at_depot_pallet@1 () Real)
(assert (let ((.def_0 (<= 0.0 fluent_battery_level_r0@1))) (let ((.def_1 (= parameter_load_at_depot_pallet@1 4.0))) (let ((.def_2 (= parameter_load_at_depot_r@1 0.0))) (let ((.def_3 (= parameter_load_at_depot_pos@1 3.0))) (let ((.def_4 (= parameter_load_at_depot_pos@1 2.0))) (let ((.def_5 (= parameter_load_at_depot_pos@1 1.0))) (let ((.def_6 (or .def_5 .def_4 .def_3))) (let ((.def_7 (= parameter_move_r@1 0.0))) (let ((.def_8 (= parameter_move_frompos@1 3.0))) (let ((.def_9 (= parameter_move_frompos@1 2.0))) (let ((.def_10 (= parameter_move_frompos@1 1.0))) (let ((.def_11 (or .def_10 .def_9 .def_8))) (let ((.def_12 (= parameter_move_topos@1 3.0))) (let ((.def_13 (= parameter_move_topos@1 2.0))) (let ((.def_14 (= parameter_move_topos@1 1.0))) (let ((.def_15 (or .def_14 .def_13 .def_12))) (let ((.def_16 (= parameter_make_treatment_pos@1 3.0))) (let ((.def_17 (= parameter_make_treatment_pos@1 2.0))) (let ((.def_18 (= parameter_make_treatment_pos@1 1.0))) (let ((.def_19 (or .def_18 .def_17 .def_16))) (let ((.def_20 (= parameter_make_treatment_r@1 0.0))) (let ((.def_21 (= parameter_make_treatment_pallet@1 4.0))) (let ((.def_22 (= parameter_make_treatment_t@1 8.0))) (let ((.def_23 (= parameter_make_treatment_t@1 7.0))) (let ((.def_24 (= parameter_make_treatment_t@1 6.0))) (let ((.def_25 (= parameter_make_treatment_t@1 5.0))) (let ((.def_26 (or .def_25 .def_24 .def_23 .def_22))) (let ((.def_27 (= parameter_load_r@1 0.0))) (let ((.def_28 (= parameter_unload_at_depot_pallet@1 4.0))) (let ((.def_29 (= parameter_load_pallet@1 4.0))) (let ((.def_30 (= parameter_unload_at_depot_r@1 0.0))) (let ((.def_31 (= parameter_load_pos@1 3.0))) (let ((.def_32 (= parameter_load_pos@1 2.0))) (let ((.def_33 (= parameter_load_pos@1 1.0))) (let ((.def_34 (or .def_33 .def_32 .def_31))) (let ((.def_35 (= parameter_unload_at_depot_pos@1 3.0))) (let ((.def_36 (= parameter_unload_at_depot_pos@1 2.0))) (let ((.def_37 (= parameter_unload_at_depot_pos@1 1.0))) (let ((.def_38 (or .def_37 .def_36 .def_35))) (let ((.def_39 (= parameter_load_t@1 8.0))) (let ((.def_40 (= parameter_load_t@1 7.0))) (let ((.def_41 (= parameter_load_t@1 6.0))) (let ((.def_42 (= parameter_load_t@1 5.0))) (let ((.def_43 (or .def_42 .def_41 .def_40 .def_39))) (let ((.def_44 (<= fluent_battery_level_r0@1 100.0))) (let ((.def_45 (and act_move@1 true .def_7))) (let ((.def_46 (= fluent_battery_level_r0@0 fluent_battery_level_r0@1))) (let ((.def_47 (not .def_46))) (let ((.def_48 (=> .def_47 .def_45))) (let ((.def_49 (and act_make_treatment@1 true .def_21 .def_16))) (let ((.def_50 (and act_unload_at_depot@1 true .def_28 .def_35))) (let ((.def_51 (and .def_50 .def_49))) (let ((.def_52 (not .def_51))) (let ((.def_53 (and act_load_at_depot@1 true .def_1 .def_3))) (let ((.def_54 (and .def_53 .def_49))) (let ((.def_55 (not .def_54))) (let ((.def_56 (and .def_53 .def_50))) (let ((.def_57 (not .def_56))) (let ((.def_58 (and act_load@1 true .def_29 .def_31))) (let ((.def_59 (and .def_58 .def_49))) (let ((.def_60 (not .def_59))) (let ((.def_61 (and .def_58 .def_50))) (let ((.def_62 (not .def_61))) (let ((.def_63 (and .def_58 .def_53))) (let ((.def_64 (not .def_63))) (let ((.def_65 (or .def_58 .def_53 .def_50 .def_49))) (let ((.def_66 (= fluent_pallet_at_plt0_p2@0 fluent_pallet_at_plt0_p2@1))) (let ((.def_67 (not .def_66))) (let ((.def_68 (=> .def_67 .def_65))) (let ((.def_69 (and act_make_treatment@1 true .def_21 .def_17))) (let ((.def_70 (and act_unload_at_depot@1 true .def_28 .def_36))) (let ((.def_71 (and .def_70 .def_69))) (let ((.def_72 (not .def_71))) (let ((.def_73 (and act_load_at_depot@1 true .def_1 .def_4))) (let ((.def_74 (and .def_73 .def_69))) (let ((.def_75 (not .def_74))) (let ((.def_76 (and .def_73 .def_70))) (let ((.def_77 (not .def_76))) (let ((.def_78 (and act_load@1 true .def_29 .def_32))) (let ((.def_79 (and .def_78 .def_69))) (let ((.def_80 (not .def_79))) (let ((.def_81 (and .def_78 .def_70))) (let ((.def_82 (not .def_81))) (let ((.def_83 (and .def_78 .def_73))) (let ((.def_84 (not .def_83))) (let ((.def_85 (or .def_78 .def_73 .def_70 .def_69))) (let ((.def_86 (= fluent_pallet_at_plt0_p1@0 fluent_pallet_at_plt0_p1@1))) (let ((.def_87 (not .def_86))) (let ((.def_88 (=> .def_87 .def_85))) (let ((.def_89 (and act_make_treatment@1 true .def_21 .def_18))) (let ((.def_90 (and act_unload_at_depot@1 true .def_28 .def_37))) (let ((.def_91 (and .def_90 .def_89))) (let ((.def_92 (not .def_91))) (let ((.def_93 (and act_load_at_depot@1 true .def_1 .def_5))) (let ((.def_94 (and .def_93 .def_89))) (let ((.def_95 (not .def_94))) (let ((.def_96 (and .def_93 .def_90))) (let ((.def_97 (not .def_96))) (let ((.def_98 (and act_load@1 true .def_29 .def_33))) (let ((.def_99 (and .def_98 .def_89))) (let ((.def_100 (not .def_99))) (let ((.def_101 (and .def_98 .def_90))) (let ((.def_102 (not .def_101))) (let ((.def_103 (and .def_98 .def_93))) (let ((.def_104 (not .def_103))) (let ((.def_105 (or .def_98 .def_93 .def_90 .def_89))) (let ((.def_106 (= fluent_pallet_at_plt0_p0@0 fluent_pallet_at_plt0_p0@1))) (let ((.def_107 (not .def_106))) (let ((.def_108 (=> .def_107 .def_105))) (let ((.def_109 (and act_load@1 true .def_29 .def_39))) (let ((.def_110 (= fluent_treated_plt0_t3@0 fluent_treated_plt0_t3@1))) (let ((.def_111 (not .def_110))) (let ((.def_112 (=> .def_111 .def_109))) (let ((.def_113 (and act_load@1 true .def_29 .def_40))) (let ((.def_114 (= fluent_treated_plt0_t2@0 fluent_treated_plt0_t2@1))) (let ((.def_115 (not .def_114))) (let ((.def_116 (=> .def_115 .def_113))) (let ((.def_117 (and act_load@1 true .def_29 .def_41))) (let ((.def_118 (= fluent_treated_plt0_t1@0 fluent_treated_plt0_t1@1))) (let ((.def_119 (not .def_118))) (let ((.def_120 (=> .def_119 .def_117))) (let ((.def_121 (and act_load@1 true .def_29 .def_42))) (let ((.def_122 (= fluent_treated_plt0_t0@0 fluent_treated_plt0_t0@1))) (let ((.def_123 (not .def_122))) (let ((.def_124 (=> .def_123 .def_121))) (let ((.def_125 (and act_make_treatment@1 true .def_16))) (let ((.def_126 (and act_load@1 true .def_31))) (let ((.def_127 (and .def_126 .def_125))) (let ((.def_128 (not .def_127))) (let ((.def_129 (or .def_126 .def_125))) (let ((.def_130 (= fluent_position_free_p2@0 fluent_position_free_p2@1))) (let ((.def_131 (not .def_130))) (let ((.def_132 (=> .def_131 .def_129))) (let ((.def_133 (and act_make_treatment@1 true .def_17))) (let ((.def_134 (and act_load@1 true .def_32))) (let ((.def_135 (and .def_134 .def_133))) (let ((.def_136 (not .def_135))) (let ((.def_137 (or .def_134 .def_133))) (let ((.def_138 (= fluent_position_free_p1@0 fluent_position_free_p1@1))) (let ((.def_139 (not .def_138))) (let ((.def_140 (=> .def_139 .def_137))) (let ((.def_141 (and act_make_treatment@1 true .def_18))) (let ((.def_142 (and act_load@1 true .def_33))) (let ((.def_143 (and .def_142 .def_141))) (let ((.def_144 (not .def_143))) (let ((.def_145 (or .def_142 .def_141))) (let ((.def_146 (= fluent_position_free_p0@0 fluent_position_free_p0@1))) (let ((.def_147 (not .def_146))) (let ((.def_148 (=> .def_147 .def_145))) (let ((.def_149 (+ t@1 10.0))) (let ((.def_150 (= t@1 .def_149))) (let ((.def_151 (and act_make_treatment@1 true .def_150 .def_21 .def_16 .def_22))) (let ((.def_152 (and act_load@1 true .def_29 .def_31 .def_39))) (let ((.def_153 (and .def_152 .def_151))) (let ((.def_154 (not .def_153))) (let ((.def_155 (or .def_152 .def_151))) (let ((.def_156 (= fluent_ready_plt0_p2_t3@0 fluent_ready_plt0_p2_t3@1))) (let ((.def_157 (not .def_156))) (let ((.def_158 (=> .def_157 .def_155))) (let ((.def_159 (and act_make_treatment@1 true .def_150 .def_21 .def_17 .def_22))) (let ((.def_160 (and act_load@1 true .def_29 .def_32 .def_39))) (let ((.def_161 (and .def_160 .def_159))) (let ((.def_162 (not .def_161))) (let ((.def_163 (or .def_160 .def_159))) (let ((.def_164 (= fluent_ready_plt0_p1_t3@0 fluent_ready_plt0_p1_t3@1))) (let ((.def_165 (not .def_164))) (let ((.def_166 (=> .def_165 .def_163))) (let ((.def_167 (and act_make_treatment@1 true .def_150 .def_21 .def_18 .def_22))) (let ((.def_168 (and act_load@1 true .def_29 .def_33 .def_39))) (let ((.def_169 (and .def_168 .def_167))) (let ((.def_170 (not .def_169))) (let ((.def_171 (or .def_168 .def_167))) (let ((.def_172 (= fluent_ready_plt0_p0_t3@0 fluent_ready_plt0_p0_t3@1))) (let ((.def_173 (not .def_172))) (let ((.def_174 (=> .def_173 .def_171))) (let ((.def_175 (and act_make_treatment@1 true .def_150 .def_21 .def_16 .def_23))) (let ((.def_176 (and act_load@1 true .def_29 .def_31 .def_40))) (let ((.def_177 (and .def_176 .def_175))) (let ((.def_178 (not .def_177))) (let ((.def_179 (or .def_176 .def_175))) (let ((.def_180 (= fluent_ready_plt0_p2_t2@0 fluent_ready_plt0_p2_t2@1))) (let ((.def_181 (not .def_180))) (let ((.def_182 (=> .def_181 .def_179))) (let ((.def_183 (and act_make_treatment@1 true .def_150 .def_21 .def_17 .def_23))) (let ((.def_184 (and act_load@1 true .def_29 .def_32 .def_40))) (let ((.def_185 (and .def_184 .def_183))) (let ((.def_186 (not .def_185))) (let ((.def_187 (or .def_184 .def_183))) (let ((.def_188 (= fluent_ready_plt0_p1_t2@0 fluent_ready_plt0_p1_t2@1))) (let ((.def_189 (not .def_188))) (let ((.def_190 (=> .def_189 .def_187))) (let ((.def_191 (and act_make_treatment@1 true .def_150 .def_21 .def_18 .def_23))) (let ((.def_192 (and act_load@1 true .def_29 .def_33 .def_40))) (let ((.def_193 (and .def_192 .def_191))) (let ((.def_194 (not .def_193))) (let ((.def_195 (or .def_192 .def_191))) (let ((.def_196 (= fluent_ready_plt0_p0_t2@0 fluent_ready_plt0_p0_t2@1))) (let ((.def_197 (not .def_196))) (let ((.def_198 (=> .def_197 .def_195))) (let ((.def_199 (and act_make_treatment@1 true .def_150 .def_21 .def_16 .def_24))) (let ((.def_200 (and act_load@1 true .def_29 .def_31 .def_41))) (let ((.def_201 (and .def_200 .def_199))) (let ((.def_202 (not .def_201))) (let ((.def_203 (or .def_200 .def_199))) (let ((.def_204 (= fluent_ready_plt0_p2_t1@0 fluent_ready_plt0_p2_t1@1))) (let ((.def_205 (not .def_204))) (let ((.def_206 (=> .def_205 .def_203))) (let ((.def_207 (and act_make_treatment@1 true .def_150 .def_21 .def_17 .def_24))) (let ((.def_208 (and act_load@1 true .def_29 .def_32 .def_41))) (let ((.def_209 (and .def_208 .def_207))) (let ((.def_210 (not .def_209))) (let ((.def_211 (or .def_208 .def_207))) (let ((.def_212 (= fluent_ready_plt0_p1_t1@0 fluent_ready_plt0_p1_t1@1))) (let ((.def_213 (not .def_212))) (let ((.def_214 (=> .def_213 .def_211))) (let ((.def_215 (and act_make_treatment@1 true .def_150 .def_21 .def_18 .def_24))) (let ((.def_216 (and act_load@1 true .def_29 .def_33 .def_41))) (let ((.def_217 (and .def_216 .def_215))) (let ((.def_218 (not .def_217))) (let ((.def_219 (or .def_216 .def_215))) (let ((.def_220 (= fluent_ready_plt0_p0_t1@0 fluent_ready_plt0_p0_t1@1))) (let ((.def_221 (not .def_220))) (let ((.def_222 (=> .def_221 .def_219))) (let ((.def_223 (and act_make_treatment@1 true .def_150 .def_21 .def_16 .def_25))) (let ((.def_224 (and act_load@1 true .def_29 .def_31 .def_42))) (let ((.def_225 (and .def_224 .def_223))) (let ((.def_226 (not .def_225))) (let ((.def_227 (or .def_224 .def_223))) (let ((.def_228 (= fluent_ready_plt0_p2_t0@0 fluent_ready_plt0_p2_t0@1))) (let ((.def_229 (not .def_228))) (let ((.def_230 (=> .def_229 .def_227))) (let ((.def_231 (and act_make_treatment@1 true .def_150 .def_21 .def_17 .def_25))) (let ((.def_232 (and act_load@1 true .def_29 .def_32 .def_42))) (let ((.def_233 (and .def_232 .def_231))) (let ((.def_234 (not .def_233))) (let ((.def_235 (or .def_232 .def_231))) (let ((.def_236 (= fluent_ready_plt0_p1_t0@0 fluent_ready_plt0_p1_t0@1))) (let ((.def_237 (not .def_236))) (let ((.def_238 (=> .def_237 .def_235))) (let ((.def_239 (and act_make_treatment@1 true .def_150 .def_21 .def_18 .def_25))) (let ((.def_240 (and act_load@1 true .def_29 .def_33 .def_42))) (let ((.def_241 (and .def_240 .def_239))) (let ((.def_242 (not .def_241))) (let ((.def_243 (or .def_240 .def_239))) (let ((.def_244 (= fluent_ready_plt0_p0_t0@0 fluent_ready_plt0_p0_t0@1))) (let ((.def_245 (not .def_244))) (let ((.def_246 (=> .def_245 .def_243))) (let ((.def_247 (and act_make_treatment@1 true .def_20 .def_21))) (let ((.def_248 (and act_unload_at_depot@1 true .def_30 .def_28))) (let ((.def_249 (and .def_248 .def_247))) (let ((.def_250 (not .def_249))) (let ((.def_251 (and act_load_at_depot@1 true .def_2 .def_1))) (let ((.def_252 (and .def_251 .def_247))) (let ((.def_253 (not .def_252))) (let ((.def_254 (and .def_251 .def_248))) (let ((.def_255 (not .def_254))) (let ((.def_256 (and act_load@1 true .def_27 .def_29))) (let ((.def_257 (and .def_256 .def_247))) (let ((.def_258 (not .def_257))) (let ((.def_259 (and .def_256 .def_248))) (let ((.def_260 (not .def_259))) (let ((.def_261 (and .def_256 .def_251))) (let ((.def_262 (not .def_261))) (let ((.def_263 (or .def_256 .def_251 .def_248 .def_247))) (let ((.def_264 (= fluent_robot_has_r0_plt0@0 fluent_robot_has_r0_plt0@1))) (let ((.def_265 (not .def_264))) (let ((.def_266 (=> .def_265 .def_263))) (let ((.def_267 (and act_make_treatment@1 true .def_20))) (let ((.def_268 (and act_unload_at_depot@1 true .def_30))) (let ((.def_269 (and .def_268 .def_267))) (let ((.def_270 (not .def_269))) (let ((.def_271 (and act_load_at_depot@1 true .def_2))) (let ((.def_272 (and .def_271 .def_267))) (let ((.def_273 (not .def_272))) (let ((.def_274 (and .def_271 .def_268))) (let ((.def_275 (not .def_274))) (let ((.def_276 (and act_load@1 true .def_27))) (let ((.def_277 (and .def_276 .def_267))) (let ((.def_278 (not .def_277))) (let ((.def_279 (and .def_276 .def_268))) (let ((.def_280 (not .def_279))) (let ((.def_281 (and .def_276 .def_271))) (let ((.def_282 (not .def_281))) (let ((.def_283 (or .def_276 .def_271 .def_268 .def_267))) (let ((.def_284 (= fluent_robot_free_r0@0 fluent_robot_free_r0@1))) (let ((.def_285 (not .def_284))) (let ((.def_286 (=> .def_285 .def_283))) (let ((.def_287 (and act_move@1 true .def_7 .def_8))) (let ((.def_288 (and act_move@1 true .def_7 .def_12))) (let ((.def_289 (and .def_288 .def_287))) (let ((.def_290 (not .def_289))) (let ((.def_291 (or .def_288 .def_287))) (let ((.def_292 (= fluent_robot_at_r0_p2@0 fluent_robot_at_r0_p2@1))) (let ((.def_293 (not .def_292))) (let ((.def_294 (=> .def_293 .def_291))) (let ((.def_295 (and act_move@1 true .def_7 .def_9))) (let ((.def_296 (and act_move@1 true .def_7 .def_13))) (let ((.def_297 (and .def_296 .def_295))) (let ((.def_298 (not .def_297))) (let ((.def_299 (or .def_296 .def_295))) (let ((.def_300 (= fluent_robot_at_r0_p1@0 fluent_robot_at_r0_p1@1))) (let ((.def_301 (not .def_300))) (let ((.def_302 (=> .def_301 .def_299))) (let ((.def_303 (and act_move@1 true .def_7 .def_10))) (let ((.def_304 (and act_move@1 true .def_7 .def_14))) (let ((.def_305 (and .def_304 .def_303))) (let ((.def_306 (not .def_305))) (let ((.def_307 (or .def_304 .def_303))) (let ((.def_308 (= fluent_robot_at_r0_p0@0 fluent_robot_at_r0_p0@1))) (let ((.def_309 (not .def_308))) (let ((.def_310 (=> .def_309 .def_307))) (let ((.def_311 (and .def_310 .def_306 .def_302 .def_298 .def_294 .def_290 .def_286 .def_282 .def_280 .def_278 .def_275 .def_273 .def_270 .def_266 .def_262 .def_260 .def_258 .def_255 .def_253 .def_250 .def_246 .def_242 .def_238 .def_234 .def_230 .def_226 .def_222 .def_218 .def_214 .def_210 .def_206 .def_202 .def_198 .def_194 .def_190 .def_186 .def_182 .def_178 .def_174 .def_170 .def_166 .def_162 .def_158 .def_154 .def_148 .def_144 .def_140 .def_136 .def_132 .def_128 .def_124 .def_120 .def_116 .def_112 .def_108 .def_104 .def_102 .def_100 .def_97 .def_95 .def_92 .def_88 .def_84 .def_82 .def_80 .def_77 .def_75 .def_72 .def_68 .def_64 .def_62 .def_60 .def_57 .def_55 .def_52 .def_48))) (let ((.def_312 (= .def_149 t@1))) (let ((.def_313 (and act_make_treatment@1 act_load@1 .def_312))) (let ((.def_314 (not .def_313))) (let ((.def_315 (= t@1 t@1))) (let ((.def_316 (and act_move@1 act_unload_at_depot@1 .def_315))) (let ((.def_317 (not .def_316))) (let ((.def_318 (and act_load_at_depot@1 act_load@1 .def_315))) (let ((.def_319 (not .def_318))) (let ((.def_320 (and act_move@1 act_load_at_depot@1 .def_315))) (let ((.def_321 (not .def_320))) (let ((.def_322 (and act_make_treatment@1 act_load@1 .def_315))) (let ((.def_323 (not .def_322))) (let ((.def_324 (and act_make_treatment@1 act_move@1 .def_315))) (let ((.def_325 (not .def_324))) (let ((.def_326 (+ t@1 dur_make_treatment@1))) (let ((.def_327 (= t@1 .def_326))) (let ((.def_328 (and act_load@1 act_make_treatment@1 .def_327))) (let ((.def_329 (not .def_328))) (let ((.def_330 (and act_make_treatment@1 act_load_at_depot@1 .def_315))) (let ((.def_331 (not .def_330))) (let ((.def_332 (and act_unload_at_depot@1 act_load_at_depot@1 .def_315))) (let ((.def_333 (not .def_332))) (let ((.def_334 (and act_move@1 act_load@1 .def_315))) (let ((.def_335 (not .def_334))) (let ((.def_336 (and act_make_treatment@1 act_unload_at_depot@1 .def_315))) (let ((.def_337 (not .def_336))) (let ((.def_338 (and act_unload_at_depot@1 act_load@1 .def_315))) (let ((.def_339 (not .def_338))) (let ((.def_340 (and .def_339 .def_337 .def_335 .def_333 .def_331 .def_329 .def_325 .def_323 .def_321 .def_319 .def_317 .def_314))) (let ((.def_341 (<= 0.0 t@1))) (let ((.def_342 (and .def_21 .def_17 .def_25))) (let ((.def_343 (ite .def_342 fluent_ready_plt0_p1_t0@1 fluent_ready_plt0_p0_t0@1))) (let ((.def_344 (and .def_21 .def_16 .def_25))) (let ((.def_345 (ite .def_344 fluent_ready_plt0_p2_t0@1 .def_343))) (let ((.def_346 (and .def_21 .def_18 .def_24))) (let ((.def_347 (ite .def_346 fluent_ready_plt0_p0_t1@1 .def_345))) (let ((.def_348 (and .def_21 .def_17 .def_24))) (let ((.def_349 (ite .def_348 fluent_ready_plt0_p1_t1@1 .def_347))) (let ((.def_350 (and .def_21 .def_16 .def_24))) (let ((.def_351 (ite .def_350 fluent_ready_plt0_p2_t1@1 .def_349))) (let ((.def_352 (and .def_21 .def_18 .def_23))) (let ((.def_353 (ite .def_352 fluent_ready_plt0_p0_t2@1 .def_351))) (let ((.def_354 (and .def_21 .def_17 .def_23))) (let ((.def_355 (ite .def_354 fluent_ready_plt0_p1_t2@1 .def_353))) (let ((.def_356 (and .def_21 .def_16 .def_23))) (let ((.def_357 (ite .def_356 fluent_ready_plt0_p2_t2@1 .def_355))) (let ((.def_358 (and .def_21 .def_18 .def_22))) (let ((.def_359 (ite .def_358 fluent_ready_plt0_p0_t3@1 .def_357))) (let ((.def_360 (and .def_21 .def_17 .def_22))) (let ((.def_361 (ite .def_360 fluent_ready_plt0_p1_t3@1 .def_359))) (let ((.def_362 (and .def_21 .def_16 .def_22))) (let ((.def_363 (ite .def_362 fluent_ready_plt0_p2_t3@1 .def_361))) (let ((.def_364 (= .def_363 true))) (let ((.def_365 (=> true .def_364))) (let ((.def_366 (and .def_150 .def_365))) (let ((.def_367 (= fluent_robot_free_r0@1 true))) (let ((.def_368 (=> true .def_367))) (let ((.def_369 (and .def_21 .def_17))) (let ((.def_370 (ite .def_369 fluent_pallet_at_plt0_p1@1 fluent_pallet_at_plt0_p0@1))) (let ((.def_371 (and .def_21 .def_16))) (let ((.def_372 (ite .def_371 fluent_pallet_at_plt0_p2@1 .def_370))) (let ((.def_373 (= .def_372 true))) (let ((.def_374 (=> true .def_373))) (let ((.def_375 (= fluent_robot_has_r0_plt0@1 false))) (let ((.def_376 (=> true .def_375))) (let ((.def_377 (ite .def_17 fluent_position_free_p1@1 fluent_position_free_p0@1))) (let ((.def_378 (ite .def_16 fluent_position_free_p2@1 .def_377))) (let ((.def_379 (= .def_378 false))) (let ((.def_380 (=> true .def_379))) (let ((.def_381 (and .def_315 .def_380 .def_376 .def_374 .def_368))) (let ((.def_382 (ite .def_17 fluent_position_free_p1@0 fluent_position_free_p0@0))) (let ((.def_383 (ite .def_16 fluent_position_free_p2@0 .def_382))) (let ((.def_384 (and .def_21 .def_24))) (let ((.def_385 (ite .def_384 fluent_treated_plt0_t1@0 fluent_treated_plt0_t0@0))) (let ((.def_386 (and .def_21 .def_23))) (let ((.def_387 (ite .def_386 fluent_treated_plt0_t2@0 .def_385))) (let ((.def_388 (and .def_21 .def_22))) (let ((.def_389 (ite .def_388 fluent_treated_plt0_t3@0 .def_387))) (let ((.def_390 (and .def_389 .def_383))) (let ((.def_391 (<= .def_326 t@1))) (let ((.def_392 (< (- 1.0) .def_326))) (let ((.def_393 (and .def_392 .def_391))) (let ((.def_394 (=> .def_393 .def_390))) (let ((.def_395 (not .def_389))) (let ((.def_396 (and .def_20 .def_17))) (let ((.def_397 (ite .def_396 fluent_robot_at_r0_p1@0 fluent_robot_at_r0_p0@0))) (let ((.def_398 (and .def_20 .def_16))) (let ((.def_399 (ite .def_398 fluent_robot_at_r0_p2@0 .def_397))) (let ((.def_400 (and .def_17 .def_25))) (let ((.def_401 (ite .def_400 false true))) (let ((.def_402 (and .def_16 .def_25))) (let ((.def_403 (ite .def_402 false .def_401))) (let ((.def_404 (and .def_18 .def_24))) (let ((.def_405 (ite .def_404 false .def_403))) (let ((.def_406 (and .def_17 .def_24))) (let ((.def_407 (ite .def_406 true .def_405))) (let ((.def_408 (and .def_16 .def_24))) (let ((.def_409 (ite .def_408 false .def_407))) (let ((.def_410 (and .def_18 .def_23))) (let ((.def_411 (ite .def_410 true .def_409))) (let ((.def_412 (and .def_17 .def_23))) (let ((.def_413 (ite .def_412 false .def_411))) (let ((.def_414 (and .def_16 .def_23))) (let ((.def_415 (ite .def_414 false .def_413))) (let ((.def_416 (and .def_18 .def_22))) (let ((.def_417 (ite .def_416 false .def_415))) (let ((.def_418 (and .def_17 .def_22))) (let ((.def_419 (ite .def_418 true .def_417))) (let ((.def_420 (and .def_16 .def_22))) (let ((.def_421 (ite .def_420 false .def_419))) (let ((.def_422 (and .def_421 .def_383 .def_399 fluent_robot_has_r0_plt0@0 .def_395))) (let ((.def_423 (<= t@1 t@1))) (let ((.def_424 (< (- 1.0) t@1))) (let ((.def_425 (and .def_424 .def_423))) (let ((.def_426 (=> .def_425 .def_422))) (let ((.def_427 (<= dur_make_treatment@1 20.0))) (let ((.def_428 (<= 20.0 dur_make_treatment@1))) (let ((.def_429 (and .def_428 .def_427))) (let ((.def_430 (and .def_429 .def_391 .def_426 .def_394 .def_381 .def_366))) (let ((.def_431 (=> act_make_treatment@1 .def_430))) (let ((.def_432 (and .def_28 .def_36))) (let ((.def_433 (ite .def_432 fluent_pallet_at_plt0_p1@1 fluent_pallet_at_plt0_p0@1))) (let ((.def_434 (and .def_28 .def_35))) (let ((.def_435 (ite .def_434 fluent_pallet_at_plt0_p2@1 .def_433))) (let ((.def_436 (= .def_435 true))) (let ((.def_437 (=> true .def_436))) (let ((.def_438 (and .def_30 .def_36))) (let ((.def_439 (ite .def_438 fluent_robot_at_r0_p1@0 fluent_robot_at_r0_p0@0))) (let ((.def_440 (and .def_30 .def_35))) (let ((.def_441 (ite .def_440 fluent_robot_at_r0_p2@0 .def_439))) (let ((.def_442 (ite .def_36 false false))) (let ((.def_443 (ite .def_35 true .def_442))) (let ((.def_444 (and .def_443 .def_441 fluent_robot_has_r0_plt0@0 .def_437 .def_368 .def_376))) (let ((.def_445 (=> act_unload_at_depot@1 .def_444))) (let ((.def_446 (and .def_1 .def_4))) (let ((.def_447 (ite .def_446 fluent_pallet_at_plt0_p1@1 fluent_pallet_at_plt0_p0@1))) (let ((.def_448 (and .def_1 .def_3))) (let ((.def_449 (ite .def_448 fluent_pallet_at_plt0_p2@1 .def_447))) (let ((.def_450 (= .def_449 false))) (let ((.def_451 (=> true .def_450))) (let ((.def_452 (= fluent_robot_has_r0_plt0@1 true))) (let ((.def_453 (=> true .def_452))) (let ((.def_454 (= fluent_robot_free_r0@1 false))) (let ((.def_455 (=> true .def_454))) (let ((.def_456 (ite .def_446 fluent_pallet_at_plt0_p1@0 fluent_pallet_at_plt0_p0@0))) (let ((.def_457 (ite .def_448 fluent_pallet_at_plt0_p2@0 .def_456))) (let ((.def_458 (and .def_2 .def_4))) (let ((.def_459 (ite .def_458 fluent_robot_at_r0_p1@0 fluent_robot_at_r0_p0@0))) (let ((.def_460 (and .def_2 .def_3))) (let ((.def_461 (ite .def_460 fluent_robot_at_r0_p2@0 .def_459))) (let ((.def_462 (ite .def_4 false false))) (let ((.def_463 (ite .def_3 true .def_462))) (let ((.def_464 (and .def_463 .def_461 fluent_robot_free_r0@0 .def_457 .def_455 .def_453 .def_451))) (let ((.def_465 (=> act_load_at_depot@1 .def_464))) (let ((.def_466 (ite .def_32 fluent_position_free_p1@1 fluent_position_free_p0@1))) (let ((.def_467 (ite .def_31 fluent_position_free_p2@1 .def_466))) (let ((.def_468 (= .def_467 true))) (let ((.def_469 (=> true .def_468))) (let ((.def_470 (and .def_29 .def_41))) (let ((.def_471 (ite .def_470 fluent_treated_plt0_t1@1 fluent_treated_plt0_t0@1))) (let ((.def_472 (and .def_29 .def_40))) (let ((.def_473 (ite .def_472 fluent_treated_plt0_t2@1 .def_471))) (let ((.def_474 (and .def_29 .def_39))) (let ((.def_475 (ite .def_474 fluent_treated_plt0_t3@1 .def_473))) (let ((.def_476 (= .def_475 true))) (let ((.def_477 (=> true .def_476))) (let ((.def_478 (and .def_29 .def_32))) (let ((.def_479 (ite .def_478 fluent_pallet_at_plt0_p1@1 fluent_pallet_at_plt0_p0@1))) (let ((.def_480 (and .def_29 .def_31))) (let ((.def_481 (ite .def_480 fluent_pallet_at_plt0_p2@1 .def_479))) (let ((.def_482 (= .def_481 false))) (let ((.def_483 (=> true .def_482))) (let ((.def_484 (and .def_29 .def_32 .def_42))) (let ((.def_485 (ite .def_484 fluent_ready_plt0_p1_t0@1 fluent_ready_plt0_p0_t0@1))) (let ((.def_486 (and .def_29 .def_31 .def_42))) (let ((.def_487 (ite .def_486 fluent_ready_plt0_p2_t0@1 .def_485))) (let ((.def_488 (and .def_29 .def_33 .def_41))) (let ((.def_489 (ite .def_488 fluent_ready_plt0_p0_t1@1 .def_487))) (let ((.def_490 (and .def_29 .def_32 .def_41))) (let ((.def_491 (ite .def_490 fluent_ready_plt0_p1_t1@1 .def_489))) (let ((.def_492 (and .def_29 .def_31 .def_41))) (let ((.def_493 (ite .def_492 fluent_ready_plt0_p2_t1@1 .def_491))) (let ((.def_494 (and .def_29 .def_33 .def_40))) (let ((.def_495 (ite .def_494 fluent_ready_plt0_p0_t2@1 .def_493))) (let ((.def_496 (and .def_29 .def_32 .def_40))) (let ((.def_497 (ite .def_496 fluent_ready_plt0_p1_t2@1 .def_495))) (let ((.def_498 (and .def_29 .def_31 .def_40))) (let ((.def_499 (ite .def_498 fluent_ready_plt0_p2_t2@1 .def_497))) (let ((.def_500 (and .def_29 .def_33 .def_39))) (let ((.def_501 (ite .def_500 fluent_ready_plt0_p0_t3@1 .def_499))) (let ((.def_502 (and .def_29 .def_32 .def_39))) (let ((.def_503 (ite .def_502 fluent_ready_plt0_p1_t3@1 .def_501))) (let ((.def_504 (and .def_29 .def_31 .def_39))) (let ((.def_505 (ite .def_504 fluent_ready_plt0_p2_t3@1 .def_503))) (let ((.def_506 (= .def_505 false))) (let ((.def_507 (=> true .def_506))) (let ((.def_508 (ite .def_478 fluent_pallet_at_plt0_p1@0 fluent_pallet_at_plt0_p0@0))) (let ((.def_509 (ite .def_480 fluent_pallet_at_plt0_p2@0 .def_508))) (let ((.def_510 (and .def_27 .def_32))) (let ((.def_511 (ite .def_510 fluent_robot_at_r0_p1@0 fluent_robot_at_r0_p0@0))) (let ((.def_512 (and .def_27 .def_31))) (let ((.def_513 (ite .def_512 fluent_robot_at_r0_p2@0 .def_511))) (let ((.def_514 (ite .def_484 fluent_ready_plt0_p1_t0@0 fluent_ready_plt0_p0_t0@0))) (let ((.def_515 (ite .def_486 fluent_ready_plt0_p2_t0@0 .def_514))) (let ((.def_516 (ite .def_488 fluent_ready_plt0_p0_t1@0 .def_515))) (let ((.def_517 (ite .def_490 fluent_ready_plt0_p1_t1@0 .def_516))) (let ((.def_518 (ite .def_492 fluent_ready_plt0_p2_t1@0 .def_517))) (let ((.def_519 (ite .def_494 fluent_ready_plt0_p0_t2@0 .def_518))) (let ((.def_520 (ite .def_496 fluent_ready_plt0_p1_t2@0 .def_519))) (let ((.def_521 (ite .def_498 fluent_ready_plt0_p2_t2@0 .def_520))) (let ((.def_522 (ite .def_500 fluent_ready_plt0_p0_t3@0 .def_521))) (let ((.def_523 (ite .def_502 fluent_ready_plt0_p1_t3@0 .def_522))) (let ((.def_524 (ite .def_504 fluent_ready_plt0_p2_t3@0 .def_523))) (let ((.def_525 (and .def_524 .def_513 fluent_robot_free_r0@0 .def_509 .def_455 .def_507 .def_483 .def_453 .def_477 .def_469))) (let ((.def_526 (=> act_load@1 .def_525))) (let ((.def_527 (and .def_9 .def_14))) (let ((.def_528 (ite .def_527 1.0 0.0))) (let ((.def_529 (and .def_8 .def_14))) (let ((.def_530 (ite .def_529 2.0 .def_528))) (let ((.def_531 (and .def_10 .def_13))) (let ((.def_532 (ite .def_531 1.0 .def_530))) (let ((.def_533 (and .def_9 .def_13))) (let ((.def_534 (ite .def_533 0.0 .def_532))) (let ((.def_535 (and .def_8 .def_13))) (let ((.def_536 (ite .def_535 1.0 .def_534))) (let ((.def_537 (and .def_10 .def_12))) (let ((.def_538 (ite .def_537 2.0 .def_536))) (let ((.def_539 (and .def_9 .def_12))) (let ((.def_540 (ite .def_539 1.0 .def_538))) (let ((.def_541 (and .def_8 .def_12))) (let ((.def_542 (ite .def_541 0.0 .def_540))) (let ((.def_543 (- fluent_battery_level_r0@0 .def_542))) (let ((.def_544 (= fluent_battery_level_r0@1 .def_543))) (let ((.def_545 (=> true .def_544))) (let ((.def_546 (and .def_7 .def_9))) (let ((.def_547 (ite .def_546 fluent_robot_at_r0_p1@1 fluent_robot_at_r0_p0@1))) (let ((.def_548 (and .def_7 .def_8))) (let ((.def_549 (ite .def_548 fluent_robot_at_r0_p2@1 .def_547))) (let ((.def_550 (= .def_549 false))) (let ((.def_551 (=> true .def_550))) (let ((.def_552 (and .def_7 .def_13))) (let ((.def_553 (ite .def_552 fluent_robot_at_r0_p1@1 fluent_robot_at_r0_p0@1))) (let ((.def_554 (and .def_7 .def_12))) (let ((.def_555 (ite .def_554 fluent_robot_at_r0_p2@1 .def_553))) (let ((.def_556 (= .def_555 true))) (let ((.def_557 (=> true .def_556))) (let ((.def_558 (<= .def_542 fluent_battery_level_r0@0))) (let ((.def_559 (ite .def_546 fluent_robot_at_r0_p1@0 fluent_robot_at_r0_p0@0))) (let ((.def_560 (ite .def_548 fluent_robot_at_r0_p2@0 .def_559))) (let ((.def_561 (= parameter_move_frompos@1 parameter_move_topos@1))) (let ((.def_562 (not .def_561))) (let ((.def_563 (and .def_562 .def_560 .def_558 .def_557 .def_551 .def_545))) (let ((.def_564 (=> act_move@1 .def_563))) (let ((.def_565 (<= fluent_battery_level_r0@0 100.0))) (let ((.def_566 (<= 0.0 fluent_battery_level_r0@0))) (let ((.def_567 (= false false))) (let ((.def_568 (= fluent_pallet_at_plt0_p1@0 false))) (let ((.def_569 (= fluent_pallet_at_plt0_p0@0 false))) (let ((.def_570 (= fluent_treated_plt0_t3@0 false))) (let ((.def_571 (= fluent_treated_plt0_t2@0 false))) (let ((.def_572 (= fluent_treated_plt0_t1@0 false))) (let ((.def_573 (= fluent_treated_plt0_t0@0 false))) (let ((.def_574 (= fluent_ready_plt0_p2_t3@0 false))) (let ((.def_575 (= fluent_ready_plt0_p1_t3@0 false))) (let ((.def_576 (= fluent_ready_plt0_p0_t3@0 false))) (let ((.def_577 (= fluent_ready_plt0_p2_t2@0 false))) (let ((.def_578 (= fluent_ready_plt0_p1_t2@0 false))) (let ((.def_579 (= fluent_ready_plt0_p0_t2@0 false))) (let ((.def_580 (= fluent_ready_plt0_p2_t1@0 false))) (let ((.def_581 (= fluent_ready_plt0_p1_t1@0 false))) (let ((.def_582 (= fluent_ready_plt0_p0_t1@0 false))) (let ((.def_583 (= fluent_ready_plt0_p2_t0@0 false))) (let ((.def_584 (= fluent_ready_plt0_p1_t0@0 false))) (let ((.def_585 (= fluent_ready_plt0_p0_t0@0 false))) (let ((.def_586 (= fluent_robot_has_r0_plt0@0 false))) (let ((.def_587 (= fluent_robot_at_r0_p1@0 false))) (let ((.def_588 (= fluent_robot_at_r0_p0@0 false))) (let ((.def_589 (= true true))) (let ((.def_590 (= fluent_position_free_p2@0 true))) (let ((.def_591 (= fluent_position_free_p1@0 true))) (let ((.def_592 (= fluent_position_free_p0@0 true))) (let ((.def_593 (= 0.0 0.0))) (let ((.def_594 (= 1.0 1.0))) (let ((.def_595 (= 2.0 2.0))) (let ((.def_596 (= fluent_battery_level_r0@0 6.0))) (let ((.def_597 (= fluent_pallet_at_plt0_p2@0 true))) (let ((.def_598 (= fluent_robot_free_r0@0 true))) (let ((.def_599 (= fluent_robot_at_r0_p2@0 true))) (let ((.def_600 (and .def_599 .def_598 .def_597 .def_596 .def_593 .def_594 .def_594 .def_595 .def_595 .def_593 .def_594 .def_594 .def_593 .def_589 .def_592 .def_591 .def_590 .def_589 .def_589 .def_589 .def_589 .def_588 .def_587 .def_586 .def_585 .def_584 .def_583 .def_582 .def_581 .def_580 .def_579 .def_578 .def_577 .def_576 .def_575 .def_574 .def_573 .def_572 .def_571 .def_570 .def_569 .def_568 .def_567 .def_567 .def_567 .def_567 .def_567 .def_567 .def_567 .def_567 .def_567 .def_567 .def_566 .def_565))) (let ((.def_601 (and .def_600 .def_564 .def_526 .def_465 .def_445 .def_431 .def_341 .def_340 true .def_311 .def_44 .def_43 .def_38 .def_34 .def_30 .def_29 .def_28 .def_27 .def_26 .def_21 .def_20 .def_19 .def_15 .def_11 .def_7 .def_6 .def_2 .def_1 .def_0 true))) .def_601)))))))))))))))))))))))))))))))))))))))))))))))))))))))))))))))))))))))))))))))))))))))))))))))))))))))))))))))))))))))))))))))))))))))))))))))))))))))))))))))))))))))))))))))))))))))))))))))))))))))))))))))))))))))))))))))))))))))))))))))))))))))))))))))))))))))))))))))))))))))))))))))))))))))))))))))))))))))))))))))))))))))))))))))))))))))))))))))))))))))))))))))))))))))))))))))))))))))))))))))))))))))))))))))))))))))))))))))))))))))))))))))))))))))))))))))))))))))))))))))))))))))))))))))))))))))))))))))))))))))))))))))))))))))))))))))))))))))))))))))))))))))))))))))))))))))))))))))))))))))))))
(check-sat)


